C
C CNF representation of pigeonhole problem for 4 pigeons and 4 holes
C
C Encoding:
C - Variable x_p,h is true iff pigeon p is in hole h
C - Every pigeon must be in some hole
C - No more than one pigeon in any hole
C
C Note: These clauses are unsatisfiable if n>m.
C
p cnf 16 28
1 2 3 4 0
5 6 7 8 0
9 10 11 12 0
13 14 15 16 0
-1 -5 0
-1 -9 0
-5 -9 0
-1 -13 0
-5 -13 0
-9 -13 0
-2 -6 0
-2 -10 0
-6 -10 0
-2 -14 0
-6 -14 0
-10 -14 0
-3 -7 0
-3 -11 0
-7 -11 0
-3 -15 0
-7 -15 0
-11 -15 0
-4 -8 0
-4 -12 0
-8 -12 0
-4 -16 0
-8 -16 0
-12 -16 0
